results/res_prop_muc/res_Cimatti_mathsat_cores/QF_UF/NEQ031_size7.smt.smt2.out

real	0m2.303s
user	0m2.103s
sys	0m0.135s
