results/res_prop_muc/res_Cimatti_mathsat_cores/QF_UF/NEQ031_size7.smt.smt2.res
unsat
( _c0
  _c1466
  _c1467
  _c1468
  _c1469
  _c1470
  _c1471
  _c1472
  _c1530
  _c1531
  _c1532
  _c1534
  _c1535
  _c1536
  _c1538
  _c1539
  _c1540
  _c1541
  _c1542
  _c1543
  _c1544
  _c1546
  _c1547
  _c1548
  _c1549
  _c1550
  _c1551
  _c1552
  _c1554
  _c1555
  _c1556
  _c1557
  _c1558
  _c1559
  _c1560
  _c1562
  _c1563
  _c1564
  _c1565
  _c1566
  _c1567
  _c1570
  _c1571
  _c1572
  _c1574
  _c1576
  _c1977
  _c2335
  _c2336
  _c2337
  _c2338
  _c2339
  _c2340
  _c2341
  _c2345
  _c2347
  _c2349
  _c2351
  _c2363
  _c2365
  _c2371
  _c2392
  _c2393
  _c2394
  _c2395
  _c2396
  _c2397
  _c2398
  _c2400
  _c2401
  _c2402
  _c2403
  _c2404
  _c2405
  _c2406
  _c2408
  _c2409
  _c2410
  _c2411
  _c2412
  _c2413
  _c2414
  _c2416
  _c2417
  _c2418
  _c2419
  _c2420
  _c2421
  _c2422
  _c2424
  _c2425
  _c2426
  _c2427
  _c2428
  _c2429
  _c2430
  _c2432
  _c2433
  _c2434
  _c2435
  _c2436
  _c2437
  _c2438
  _c2439
  _c2441
  _c2442
  _c2443
  _c2444
  _c2445
  _c2446
  _c2447
  _c2449
  _c2450
  _c2451
  _c2452
  _c2453
  _c2454
  _c2455
  _c2457
  _c2458
  _c2459
  _c2460
  _c2461
  _c2462
  _c2463
  _c2465
  _c2466
  _c2467
  _c2468
  _c2469
  _c2470
  _c2471
  _c2473
  _c2474
  _c2475
  _c2476
  _c2477
  _c2478
  _c2479
  _c2481
  _c2482
  _c2483
  _c2484
  _c2485
  _c2486
  _c2487
  _c2490
  _c2491
  _c2492
  _c2493
  _c2494
  _c2495
  _c2496
  _c2498
  _c2499
  _c2500
  _c2501
  _c2502
  _c2503
  _c2504
  _c2506
  _c2507
  _c2508
  _c2509
  _c2510
  _c2511
  _c2512
  _c2514
  _c2515
  _c2516
  _c2517
  _c2518
  _c2519
  _c2520
  _c2522
  _c2523
  _c2524
  _c2525
  _c2526
  _c2527
  _c2528
  _c2530
  _c2531
  _c2532
  _c2533
  _c2534
  _c2535
  _c2536
  _c2539
  _c2540
  _c2541
  _c2542
  _c2543
  _c2544
  _c2545
  _c2547
  _c2548
  _c2549
  _c2550
  _c2551
  _c2552
  _c2553
  _c2555
  _c2556
  _c2557
  _c2558
  _c2559
  _c2560
  _c2561
  _c2563
  _c2564
  _c2565
  _c2566
  _c2567
  _c2568
  _c2569
  _c2571
  _c2572
  _c2573
  _c2574
  _c2575
  _c2576
  _c2577
  _c2579
  _c2580
  _c2581
  _c2582
  _c2583
  _c2584
  _c2585
  _c2588
  _c2589
  _c2590
  _c2591
  _c2592
  _c2593
  _c2594
  _c2598
  _c2599
  _c2600
  _c2601
  _c2602
  _c2604
  _c2605
  _c2606
  _c2607
  _c2608
  _c2609
  _c2610
  _c2612
  _c2613
  _c2614
  _c2615
  _c2616
  _c2617
  _c2618
  _c2620
  _c2621
  _c2622
  _c2623
  _c2624
  _c2625
  _c2626
  _c2628
  _c2629
  _c2630
  _c2631
  _c2632
  _c2633
  _c2638
  _c2639
  _c2640
  _c2641
  _c2642
  _c2643
  _c2645
  _c2646
  _c2647
  _c2648
  _c2649
  _c2650
  _c2651
  _c2653
  _c2654
  _c2655
  _c2656
  _c2657
  _c2658
  _c2659
  _c2661
  _c2662
  _c2663
  _c2664
  _c2665
  _c2666
  _c2667
  _c2669
  _c2670
  _c2671
  _c2672
  _c2673
  _c2674
  _c2675
  _c2677
  _c2678
  _c2679
  _c2680
  _c2681
  _c2682
  _c2686
  _c2687
  _c2688
  _c2689
  _c2690
  _c2691
  _c2692
  _c2694
  _c2695
  _c2696
  _c2697
  _c2698
  _c2699
  _c2700
  _c2702
  _c2703
  _c2704
  _c2705
  _c2706
  _c2707
  _c2708
  _c2710
  _c2711
  _c2712
  _c2713
  _c2714
  _c2715
  _c2716
  _c2718
  _c2719
  _c2720
  _c2721
  _c2722
  _c2723
  _c2724
  _c2726
  _c2727
  _c2728
  _c2729
  _c2730
  _c2731
  _c2732
  _c3477
  _c3478
  _c3479
  _c3480
  _c3481
  _c3482
  _c3483
  _c3485
  _c3486
  _c3487
  _c3489
  _c3490
  _c3491
  _c3493
  _c3494
  _c3496
  _c3498
  _c3499
  _c3505
  _c3506
  _c3507
  _c3510
  _c3511
  _c3512
  _c3513
  _c3514
  _c3515
  _c3517
  _c3518
  _c3519
  _c3520
  _c3521
  _c3522
  _c3523
  _c3903
  _c3904
  _c3905
  _c3906
  _c3907
  _c3908
  _c3909
  _c4022
  _c4030
  _c4038
  _c4046
  _c4054
  _c4062
  _c4070
  _c4079
  _c4080
  _c4081
  _c4082
  _c4083
  _c4084
  _c4085
  _c4087
  _c4088
  _c4089
  _c4090
  _c4091
  _c4092
  _c4093
  _c4095
  _c4096
  _c4097
  _c4098
  _c4099
  _c4100
  _c4101
  _c4103
  _c4104
  _c4105
  _c4106
  _c4107
  _c4108
  _c4109
  _c4111
  _c4112
  _c4113
  _c4114
  _c4115
  _c4116
  _c4117
  _c4119
  _c4120
  _c4121
  _c4122
  _c4123
  _c4124
  _c4125
  _c4246
  _c4247
  _c4248
  _c4249
  _c4250
  _c4251
  _c4253
  _c4254
  _c4255
  _c4256
  _c4257
  _c4260
  _c4261
  _c4262
  _c4263
  _c4267
  _c4268
  _c4269
  _c4274
  _c4275
  _c4281
  _c4756
  _c5115
  _c5117
  _c5118
  _c5119
  _c5120
  _c5634
  _c5635
  _c5636
  _c5637
  _c5638
  _c5639
  _c5640
  _c5642
  _c5643
  _c5644
  _c5645
  _c5646
  _c5647
  _c5648
  _c5650
  _c5651
  _c5652
  _c5653
  _c5654
  _c5655
  _c5656
  _c5658
  _c5659
  _c5660
  _c5661
  _c5662
  _c5663
  _c5664
  _c5666
  _c5667
  _c5668
  _c5669
  _c5670
  _c5671
  _c5672
  _c5674
  _c5675
  _c5676
  _c5677
  _c5678
  _c5679
  _c5680
  _c5681
  _c57
  _c5766
  _c5768
  _c5770
  _c5771
  _c5772
  _c5773
  _c5774
  _c5775
  _c5776
  _c5777
  _c5778
  _c5779
  _c5780
  _c5781
  _c5782
  _c5783
  _c5784
  _c5785
  _c5786
  _c5787
  _c5788
  _c5789
  _c58
  _c59
  _c60
  _c61
  _c62
  _c63
  _c736
  _c737
  _c738
  _c739
  _c740
  _c741
  _c742
  _c743
  _c744
  _c745
  _c746
  _c747
  _c748
  _c749
  _c750
  _c751
  _c752
  _c753
  _c754
  _c755
  _c756
  _c757
  _c758
  _c759
  _c760
  _c761
  _c762
  _c763
  _c764
  _c765
  _c766
  _c767
  _c768
  _c769
  _c770
  _c771
  _c772
  _c773
  _c774
  _c775
  _c776
  _c777
  _c778
  _c779
  _c780
  _c781
  _c782
  _c783
  _c784
  _c785
  _c786
  _c787
  _c788
  _c789
  _c790
  _c791
  _c792
  _c793
  _c794
  _c795
  _c796
  _c797
  _c798
  _c799
  _c800
  _c801
  _c803
  _c804
  _c805
  _c806
  _c807
  _c808
  _c809
  _c810
  _c811
  _c812
  _c813
  _c814
  _c815
  _c816
  _c817
  _c818
  _c819
  _c820
  _c827
  _c828
  _c829
  _c830
  _c831
  _c833
  _c834
  _c835
  _c836
  _c838
  _c839
  _c840
  _c841
  _c843
  _c844
  _c845
  _c846
  _c847
  _c848
  _c849
  _c850
  _c851
  _c853
  _c854
  _c855
  _c856
  _c869
  _c870
  _c871
  _c872
  _c875
  _c876
  _c877
  _c880
  _c881
  _c882
  _c885
  _c886
  _c887
  _c890
  _c891
  _c892
  _c903
  _c911
  _c912
  _c913
  _c917
  _c918
  _c922
  _c923
  _c927
  _c928
  _c953
  _c954
  _c959
  _c964
  _c995 )
